s td 33 4 36
b 1 1 2 13
b 2 11 12 24
b 3 13 25 26
b 4 2 13 14 26
b 5 24 35 36
b 6 11 23 24 35
b 7 2 3 14 26
b 8 3 14 15 26
b 9 3 15 26 27
b 10 3 4 15 27
b 11 4 15 16 27
b 12 4 16 27 28
b 13 4 5 16 28
b 14 5 16 17 28
b 15 5 17 28 29
b 16 5 6 17 29
b 17 6 17 18 29
b 18 6 18 29 30
b 19 6 7 18 30
b 20 7 18 19 30
b 21 7 19 30 31
b 22 7 8 19 31
b 23 8 19 20 31
b 24 8 20 31 32
b 25 8 9 20 32
b 26 9 20 21 32
b 27 9 21 32 33
b 28 9 10 21 33
b 29 10 21 22 33
b 30 10 22 33 34
b 31 10 11 22 34
b 32 11 22 23 34
b 33 11 23 34 35
1 4
2 6
3 4
4 7
5 6
6 33
7 8
8 9
9 10
10 11
11 12
12 13
13 14
14 15
15 16
16 17
17 18
18 19
19 20
20 21
21 22
22 23
23 24
24 25
25 26
26 27
27 28
28 29
29 30
30 31
31 32
32 33
